sols/sigmoid_mix_sol_L2_n5_1como2.txt
h-1,0   0.01
h-1,2   0.01
h-1,3   0.01
h-1,4   0.01
h-1,7   0.01
h-1,8   0.01
h-1,12  0.01
h-1,13  0.01
h-1,18  0.01
h-1,19  0.01
h-1,20  0.01
h-1,21  0.01
h-1,22  0.01
h-1,25  0.01
h-1,28  0.01
h-1,29  0.01
h-1,32  0.01
h-1,33  0.01
h-1,34  0.01
h-1,35  0.01
h-1,36  0.01
h-1,37  0.01
h-1,38  0.01
h-1,39  0.01
h-1,40  0.01
h-1,43  0.01
h-1,44  0.01
h-1,45  0.01
h-1,46  0.01
h-1,47  0.01
h-1,48  0.01
h-1,49  0.01
h-1,50  0.01
h-1,51  0.01
h-1,52  0.01
h-1,53  0.01
h-1,54  0.01
h-1,56  0.01
h-1,57  0.01
h-1,59  0.01
h-1,60  0.01
h-1,61  0.01
h-1,62  0.01
h-1,63  0.01
h-1,64  0.01
h-1,65  0.01
h-1,66  0.01
h-1,67  0.01
h-1,68  0.01
h-1,69  0.01
h-1,71  0.01
h-1,72  0.01
h-1,73  0.01
h-1,74  0.01
h-1,75  0.01
h-1,76  0.01
h-1,77  0.01
h-1,78  0.01
h-1,79  0.01
h-1,80  0.01
h-1,81  0.01
h-1,82  0.01
h-1,83  0.01
h-1,86  0.01
h-1,87  0.01
h-1,88  0.01
h-1,89  0.01
h-1,90  0.01
h-1,91  0.01
h-1,92  0.01
h-1,93  0.01
h-1,94  0.01
h-1,95  0.01
h-1,96  0.01
h-1,97  0.01
h-1,98  0.01
h-1,99  0.01
h-1,100 0.01
h-1,101 0.01
h-1,102 0.01
h-1,103 0.01
h-1,104 0.01
h-1,105 0.01
h-1,106 0.01
h-1,107 0.01
h-1,110 0.01
h-1,111 0.01
h-1,113 0.01
h-1,118 0.01
h-1,119 0.01
h-1,120 0.01
h-1,121 0.01
h-1,123 0.01
h-1,124 0.01
h-1,125 0.01
h-1,126 0.01
h-1,127 0.01
h-1,128 0.15901961386203767
h-1,129 0.9860784316062927
h-1,130 0.4374509847164154
h-1,131 0.01
h-1,132 0.01
h-1,133 0.01
h-1,134 0.01
h-1,135 0.01
h-1,137 0.01
h-1,138 0.01
h-1,141 0.01
h-1,142 0.01
h-1,144 0.01
h-1,145 0.01
h-1,146 0.01
h-1,147 0.01
h-1,148 0.01
h-1,149 0.01
h-1,150 0.01
h-1,153 0.01
h-1,155 0.01
h-1,156 0.35117648005485536
h-1,157 0.9782352948188782
h-1,158 0.331568638086319
h-1,160 0.01
h-1,162 0.01
h-1,163 0.01
h-1,164 0.01
h-1,166 0.01
h-1,167 0.01
h-1,168 0.01
h-1,169 0.01
h-1,170 0.01
h-1,171 0.00037055008839269256
h-1,174 0.01
h-1,177 0.01
h-1,178 0.01
h-1,179 0.01
h-1,181 0.01
h-1,182 0.01
h-1,184 0.539411792755127
h-1,185 0.9350980424880981
h-1,186 0.01
h-1,187 0.01
h-1,188 0.01
h-1,190 0.01
h-1,192 0.01
h-1,194 0.01
h-1,197 0.01
h-1,200 0.01
h-1,202 0.01
h-1,203 0.01
h-1,208 0.01
h-1,210 0.01
h-1,211 0.16647059261798858
h-1,212 0.94686274766922
h-1,213 0.5982353186607361
h-1,215 0.01
h-1,216 0.01
h-1,220 0.01
h-1,221 0.01
h-1,229 0.01
h-1,231 0.01
h-1,238 0.01
h-1,239 0.33941177487373353
h-1,240 1.0
h-1,241 0.25705882370471955
h-1,242 0.01
h-1,245 0.01
h-1,246 0.01
h-1,248 0.01
h-1,249 0.01
h-1,250 0.01
h-1,253 0.01
h-1,256 0.01
h-1,258 0.01
h-1,259 0.01
h-1,266 0.01
h-1,267 0.7821568751335144
h-1,268 0.8645098114013672
h-1,269 0.033137256056070326
h-1,273 0.01
h-1,274 0.01
h-1,276 0.01
h-1,277 0.01
h-1,278 0.01
h-1,279 0.01
h-1,282 0.01
h-1,283 0.01
h-1,286 0.01
h-1,294 0.11549020349979401
h-1,295 1.0
h-1,296 0.8370588326454163
h-1,305 0.008089567164663986
h-1,306 0.01
h-1,307 0.01
h-1,311 0.01
h-1,322 0.38254902720451356
h-1,323 0.9860784316062927
h-1,324 0.7547058963775635
h-1,333 0.01
h-1,334 0.01
h-1,335 0.01
h-1,337 0.01
h-1,344 0.01
h-1,346 0.01
h-1,347 0.01
h-1,350 0.5590196347236633
h-1,351 0.9860784316062927
h-1,352 0.2919607961177826
h-1,356 0.01
h-1,358 0.01
h-1,359 0.01
h-1,361 0.01
h-1,362 0.01
h-1,363 0.01
h-1,365 0.01
h-1,367 0.01
h-1,377 0.21352941334247588
h-1,378 0.939411768913269
h-1,379 0.7939215803146362
h-1,380 0.0213725508749485
h-1,381 0.01
h-1,383 0.01
h-1,387 0.01
h-1,388 0.01
h-1,389 0.01
h-1,390 0.01
h-1,391 0.01
h-1,395 0.01
h-1,400 0.01
h-1,401 0.01
h-1,402 0.01
h-1,405 0.49627451062202455
h-1,406 1.0
h-1,407 0.6370588445663452
h-1,411 0.01
h-1,416 0.01
h-1,417 0.01
h-1,418 0.01
h-1,419 0.01
h-1,422 0.01
h-1,423 0.01
h-1,426 0.01
h-1,427 0.01
h-1,428 0.01
h-1,429 0.01
h-1,431 0.01
h-1,433 0.6805882549285889
h-1,434 0.9860784316062927
h-1,435 0.3276470696926117
h-1,440 0.01
h-1,441 0.01
h-1,442 0.01
h-1,444 0.01
h-1,445 0.01
h-1,446 0.01
h-1,447 0.01
h-1,449 0.01
h-1,450 0.01
h-1,451 0.01
h-1,457 0.01
h-1,458 0.01
h-1,460 0.08411764889955521
h-1,461 0.9198039269447327
h-1,462 0.853137264251709
h-1,466 0.01
h-1,467 0.01
h-1,470 0.01
h-1,472 0.01
h-1,474 0.01
h-1,476 0.01
h-1,477 0.01
h-1,478 0.01
h-1,480 0.01
h-1,481 0.01
h-1,486 0.01
h-1,488 0.4605882370471954
h-1,489 0.9860784316062927
h-1,490 0.6135294342041016
h-1,494 0.01
h-1,495 0.01
h-1,496 0.01
h-1,497 0.01
h-1,498 0.01
h-1,499 0.01
h-1,501 0.01
h-1,504 0.01
h-1,505 0.01
h-1,506 0.01
h-1,507 0.01
h-1,508 0.01
h-1,509 0.01
h-1,510 0.01
h-1,516 0.5821568870544434
h-1,517 0.9860784316062927
h-1,518 0.5468627715110779
h-1,520 0.01
h-1,521 0.01
h-1,522 0.01
h-1,523 0.01
h-1,524 0.01
h-1,525 0.01
h-1,526 0.01
h-1,527 0.01
h-1,528 0.01
h-1,529 0.01
h-1,530 0.01
h-1,531 0.01
h-1,532 0.01
h-1,533 0.01
h-1,535 0.01
h-1,536 0.01
h-1,538 0.01
h-1,542 0.01
h-1,543 0.01
h-1,544 0.8841176533699036
h-1,545 1.0
h-1,546 0.2688235437870026
h-1,547 0.01
h-1,548 0.01
h-1,549 0.01
h-1,550 0.01
h-1,551 0.01
h-1,552 0.01
h-1,553 0.01
h-1,555 0.01
h-1,556 0.01
h-1,558 0.01
h-1,559 0.01
h-1,560 0.01
h-1,561 0.01
h-1,562 0.01
h-1,563 0.01
h-1,564 0.01
h-1,566 0.01
h-1,567 0.01
h-1,568 0.01
h-1,569 0.01
h-1,571 0.249215686917305
h-1,572 0.9943137264251709
h-1,573 1.0
h-1,574 0.2688235437870026
h-1,575 0.01
h-1,576 0.01
h-1,577 0.01
h-1,578 0.01
h-1,579 0.01
h-1,580 0.01
h-1,581 0.01
h-1,582 0.01
h-1,583 0.01
h-1,584 0.01
h-1,585 0.01
h-1,586 0.01
h-1,589 0.01
h-1,590 0.01
h-1,591 0.01
h-1,592 0.01
h-1,594 0.01
h-1,595 0.01
h-1,596 0.01
h-1,597 0.01
h-1,598 0.01
h-1,599 0.5429412031173706
h-1,600 1.0
h-1,601 0.8139215803146362
h-1,602 0.021764706112444403
h-1,603 0.01
h-1,605 0.01
h-1,606 0.01
h-1,607 0.01
h-1,608 0.01
h-1,609 0.01
h-1,611 0.01
h-1,612 0.01
h-1,613 0.01
h-1,614 0.01
h-1,618 0.01
h-1,619 0.01
h-1,621 0.01
h-1,624 0.01
h-1,625 0.01
h-1,626 0.02921568766236305
h-1,627 0.853137264251709
h-1,628 0.9860784316062927
h-1,629 0.4845098054409027
h-1,631 0.01
h-1,632 0.01
h-1,633 0.01
h-1,635 0.01
h-1,636 0.01
h-1,638 0.01
h-1,639 0.01
h-1,641 0.01
h-1,642 0.01
h-1,646 0.01
h-1,648 0.01
h-1,649 0.01
h-1,650 0.01
h-1,651 0.01
h-1,652 0.01
h-1,653 0.01
h-1,654 0.029607843831181528
h-1,655 0.7664706015586853
h-1,656 0.7001960968971253
h-1,657 0.02921568766236305
h-1,658 0.01
h-1,659 0.01
h-1,660 0.01
h-1,661 0.01
h-1,662 0.01
h-1,664 0.01
h-1,665 0.01
h-1,666 0.01
h-1,668 0.01
h-1,669 0.01
h-1,670 0.01
h-1,671 0.01
h-1,672 0.01
h-1,674 0.01
h-1,675 0.01
h-1,676 0.01
h-1,677 0.01
h-1,679 0.01
h-1,680 0.01
h-1,681 0.01
h-1,682 0.01
h-1,683 0.01
h-1,684 0.01
h-1,685 0.01
h-1,686 0.01
h-1,688 0.01
h-1,689 0.01
h-1,696 0.01
h-1,698 0.01
h-1,699 0.01
h-1,700 0.01
h-1,702 0.01
h-1,704 0.01
h-1,706 0.01
h-1,707 0.01
h-1,708 0.01
h-1,709 0.01
h-1,710 0.01
h-1,712 0.01
h-1,713 0.01
h-1,714 0.01
h-1,715 0.01
h-1,716 0.01
h-1,718 0.01
h-1,719 0.01
h-1,723 0.01
h-1,724 0.01
h-1,726 0.01
h-1,727 0.01
h-1,729 0.01
h-1,730 0.01
h-1,738 0.01
h-1,748 0.01
h-1,749 0.01
h-1,750 0.01
h-1,751 0.01
h-1,752 0.01
h-1,753 0.01
h-1,755 0.01
h-1,759 0.01
h-1,769 0.01
h-1,772 0.01
h-1,773 0.01
h-1,781 0.01
h-1,783 0.01
z0,0    -15.039599897088001
z0,1    11.695314313831805
a0,1    0.9999999977233648
z0,2    -12.023418774827528
a0,2    0.006660029861675555
z0,3    -5.670992583531056
a0,3    0.0034296943340676083
z0,4    -7.695544587482454
a0,4    0.5111562013730279
z1,0    -25.369615715189983
z1,1    4.1811071942651425
a1,1    6.666723826986853e-06
z1,2    2.4163878579048554
a1,2    0.9181622525589833
z1,3    -13.989451525776415
z1,4    -18.72410893156153
z1,5    -21.391401149704592
z1,6    -7.502363539572517
z1,7    -13.474614682752982
z1,8    -16.105541757850673
z1,9    -36.40329969308372
