sols/sigmoid_mix_sol_L2_n5_1como2.sol
objective value:                   -0.067112638280786
h-1,0                                            0.01 	(obj:0)
h-1,2                                            0.01 	(obj:0)
h-1,3                                            0.01 	(obj:0)
h-1,5                                            0.01 	(obj:0)
h-1,6                                            0.01 	(obj:0)
h-1,7                                            0.01 	(obj:0)
h-1,9                                            0.01 	(obj:0)
h-1,10                                           0.01 	(obj:0)
h-1,12                                           0.01 	(obj:0)
h-1,14                                           0.01 	(obj:0)
h-1,15                                           0.01 	(obj:0)
h-1,16                                           0.01 	(obj:0)
h-1,17                                           0.01 	(obj:0)
h-1,18                                           0.01 	(obj:0)
h-1,20                                           0.01 	(obj:0)
h-1,21                                           0.01 	(obj:0)
h-1,23                                           0.01 	(obj:0)
h-1,24                                           0.01 	(obj:0)
h-1,26                                           0.01 	(obj:0)
h-1,28                                           0.01 	(obj:0)
h-1,30                                           0.01 	(obj:0)
h-1,31                                           0.01 	(obj:0)
h-1,32                                           0.01 	(obj:0)
h-1,34                                           0.01 	(obj:0)
h-1,35                                           0.01 	(obj:0)
h-1,36                                           0.01 	(obj:0)
h-1,37                                           0.01 	(obj:0)
h-1,39                                           0.01 	(obj:0)
h-1,40                                           0.01 	(obj:0)
h-1,41                                           0.01 	(obj:0)
h-1,43                                           0.01 	(obj:0)
h-1,44                                           0.01 	(obj:0)
h-1,45                                           0.01 	(obj:0)
h-1,47                                           0.01 	(obj:0)
h-1,48                                           0.01 	(obj:0)
h-1,49                                           0.01 	(obj:0)
h-1,53                                           0.01 	(obj:0)
h-1,59                                           0.01 	(obj:0)
h-1,62                                           0.01 	(obj:0)
h-1,63                                           0.01 	(obj:0)
h-1,64                                           0.01 	(obj:0)
h-1,65                                           0.01 	(obj:0)
h-1,66                                           0.01 	(obj:0)
h-1,67                                           0.01 	(obj:0)
h-1,68                                           0.01 	(obj:0)
h-1,69                                           0.01 	(obj:0)
h-1,70                                           0.01 	(obj:0)
h-1,71                                           0.01 	(obj:0)
h-1,72                                           0.01 	(obj:0)
h-1,73                                           0.01 	(obj:0)
h-1,74                                           0.01 	(obj:0)
h-1,75                                           0.01 	(obj:0)
h-1,77                                           0.01 	(obj:0)
h-1,78                                           0.01 	(obj:0)
h-1,79                                           0.01 	(obj:0)
h-1,80                                           0.01 	(obj:0)
h-1,81                                           0.01 	(obj:0)
h-1,82                                           0.01 	(obj:0)
h-1,87                                           0.01 	(obj:0)
h-1,88                                           0.01 	(obj:0)
h-1,89                                           0.01 	(obj:0)
h-1,93                                           0.01 	(obj:0)
h-1,94                                           0.01 	(obj:0)
h-1,95                                           0.01 	(obj:0)
h-1,97                                           0.01 	(obj:0)
h-1,100                                          0.01 	(obj:0)
h-1,102                                          0.01 	(obj:0)
h-1,103                                          0.01 	(obj:0)
h-1,105                                          0.01 	(obj:0)
h-1,108                                          0.01 	(obj:0)
h-1,112                                          0.01 	(obj:0)
h-1,115                                          0.01 	(obj:0)
h-1,116                                          0.01 	(obj:0)
h-1,117                                          0.01 	(obj:0)
h-1,119                                          0.01 	(obj:0)
h-1,120                                          0.01 	(obj:0)
h-1,121                                          0.01 	(obj:0)
h-1,123                                          0.01 	(obj:0)
h-1,125                                          0.01 	(obj:0)
h-1,128                             0.159019613862038 	(obj:0)
h-1,129                                             1 	(obj:0)
h-1,130                             0.417450984716415 	(obj:0)
h-1,131                                          0.01 	(obj:0)
h-1,132                                          0.01 	(obj:0)
h-1,133                                          0.01 	(obj:0)
h-1,139                                          0.01 	(obj:0)
h-1,140                                          0.01 	(obj:0)
h-1,146                                          0.01 	(obj:0)
h-1,150                                          0.01 	(obj:0)
h-1,151                                          0.01 	(obj:0)
h-1,153                                          0.01 	(obj:0)
h-1,155                                          0.01 	(obj:0)
h-1,156                             0.331176480054855 	(obj:0)
h-1,157                             0.998235294818878 	(obj:0)
h-1,158                             0.331568638086319 	(obj:0)
h-1,164                                          0.01 	(obj:0)
h-1,167                                          0.01 	(obj:0)
h-1,172                                          0.01 	(obj:0)
h-1,180                                          0.01 	(obj:0)
h-1,182                                          0.01 	(obj:0)
h-1,184                             0.539411792755127 	(obj:0)
h-1,185                             0.955098042488098 	(obj:0)
h-1,190                                          0.01 	(obj:0)
h-1,191                                          0.01 	(obj:0)
h-1,198                                          0.01 	(obj:0)
h-1,200                                          0.01 	(obj:0)
h-1,201                                          0.01 	(obj:0)
h-1,202                                          0.01 	(obj:0)
h-1,203                                          0.01 	(obj:0)
h-1,204                                          0.01 	(obj:0)
h-1,205                                          0.01 	(obj:0)
h-1,207                                          0.01 	(obj:0)
h-1,209                                          0.01 	(obj:0)
h-1,211                             0.186470592617989 	(obj:0)
h-1,212                              0.94686274766922 	(obj:0)
h-1,213                             0.578235318660736 	(obj:0)
h-1,215                                          0.01 	(obj:0)
h-1,217                                          0.01 	(obj:0)
h-1,224                                          0.01 	(obj:0)
h-1,225                                          0.01 	(obj:0)
h-1,226                                          0.01 	(obj:0)
h-1,227                                          0.01 	(obj:0)
h-1,233                                          0.01 	(obj:0)
h-1,234                                          0.01 	(obj:0)
h-1,235                                          0.01 	(obj:0)
h-1,236                                          0.01 	(obj:0)
h-1,238                                          0.01 	(obj:0)
h-1,239                             0.339411774873734 	(obj:0)
h-1,240                             0.986078431606293 	(obj:0)
h-1,241                              0.25705882370472 	(obj:0)
h-1,244                                          0.01 	(obj:0)
h-1,247                                          0.01 	(obj:0)
h-1,252                                          0.01 	(obj:0)
h-1,253                                          0.01 	(obj:0)
h-1,254                                          0.01 	(obj:0)
h-1,257                                          0.01 	(obj:0)
h-1,259                                          0.01 	(obj:0)
h-1,262                                          0.01 	(obj:0)
h-1,265                                          0.01 	(obj:0)
h-1,266                                          0.01 	(obj:0)
h-1,267                             0.782156875133514 	(obj:0)
h-1,268                             0.884509811401367 	(obj:0)
h-1,269                            0.0331372560560703 	(obj:0)
h-1,270                                          0.01 	(obj:0)
h-1,271                                          0.01 	(obj:0)
h-1,275                                          0.01 	(obj:0)
h-1,280                                          0.01 	(obj:0)
h-1,281                                          0.01 	(obj:0)
h-1,282                                          0.01 	(obj:0)
h-1,285                                          0.01 	(obj:0)
h-1,286                                          0.01 	(obj:0)
h-1,289                                          0.01 	(obj:0)
h-1,291                                          0.01 	(obj:0)
h-1,292                                          0.01 	(obj:0)
h-1,294                             0.135490203499794 	(obj:0)
h-1,295                                             1 	(obj:0)
h-1,296                             0.857058832645416 	(obj:0)
h-1,298                                          0.01 	(obj:0)
h-1,301                                          0.01 	(obj:0)
h-1,308                                          0.01 	(obj:0)
h-1,309                                          0.01 	(obj:0)
h-1,311                                          0.01 	(obj:0)
h-1,313                                          0.01 	(obj:0)
h-1,322                             0.362549027204514 	(obj:0)
h-1,323                             0.986078431606293 	(obj:0)
h-1,324                             0.754705896377563 	(obj:0)
h-1,326                                          0.01 	(obj:0)
h-1,327                                          0.01 	(obj:0)
h-1,328                                          0.01 	(obj:0)
h-1,329                                          0.01 	(obj:0)
h-1,330                                          0.01 	(obj:0)
h-1,332                                          0.01 	(obj:0)
h-1,336                                          0.01 	(obj:0)
h-1,350                             0.539019634723663 	(obj:0)
h-1,351                             0.986078431606293 	(obj:0)
h-1,352                             0.291960796117783 	(obj:0)
h-1,357                                          0.01 	(obj:0)
h-1,358                                          0.01 	(obj:0)
h-1,359                                          0.01 	(obj:0)
h-1,360                                          0.01 	(obj:0)
h-1,364                                          0.01 	(obj:0)
h-1,366                                          0.01 	(obj:0)
h-1,374                                          0.01 	(obj:0)
h-1,377                             0.213529413342476 	(obj:0)
h-1,378                             0.919411768913269 	(obj:0)
h-1,379                             0.793921580314636 	(obj:0)
h-1,380                            0.0213725508749485 	(obj:0)
h-1,386                                          0.01 	(obj:0)
h-1,387                                          0.01 	(obj:0)
h-1,388                                          0.01 	(obj:0)
h-1,389                                          0.01 	(obj:0)
h-1,390                                          0.01 	(obj:0)
h-1,393                                          0.01 	(obj:0)
h-1,397                                          0.01 	(obj:0)
h-1,398                                          0.01 	(obj:0)
h-1,399                                          0.01 	(obj:0)
h-1,401                                          0.01 	(obj:0)
h-1,402                                          0.01 	(obj:0)
h-1,403                                          0.01 	(obj:0)
h-1,405                             0.476274510622025 	(obj:0)
h-1,406                                          0.99 	(obj:0)
h-1,407                             0.637058844566345 	(obj:0)
h-1,412                                          0.01 	(obj:0)
h-1,413                                          0.01 	(obj:0)
h-1,415                                          0.01 	(obj:0)
h-1,417                                          0.01 	(obj:0)
h-1,418                                          0.01 	(obj:0)
h-1,422                                          0.01 	(obj:0)
h-1,424                                          0.01 	(obj:0)
h-1,425                                          0.01 	(obj:0)
h-1,426                                          0.01 	(obj:0)
h-1,427                                          0.01 	(obj:0)
h-1,428                                          0.01 	(obj:0)
h-1,429                                          0.01 	(obj:0)
h-1,430                                          0.01 	(obj:0)
h-1,433                             0.660588254928589 	(obj:0)
h-1,434                             0.986078431606293 	(obj:0)
h-1,435                             0.307647069692612 	(obj:0)
h-1,436                                          0.01 	(obj:0)
h-1,439                                          0.01 	(obj:0)
h-1,440                                          0.01 	(obj:0)
h-1,444                                          0.01 	(obj:0)
h-1,445                                          0.01 	(obj:0)
h-1,446                                          0.01 	(obj:0)
h-1,447                                          0.01 	(obj:0)
h-1,448                                          0.01 	(obj:0)
h-1,452                                          0.01 	(obj:0)
h-1,453                                          0.01 	(obj:0)
h-1,454                                          0.01 	(obj:0)
h-1,455                                          0.01 	(obj:0)
h-1,457                                          0.01 	(obj:0)
h-1,458                                          0.01 	(obj:0)
h-1,460                            0.0841176488995552 	(obj:0)
h-1,461                             0.899803926944733 	(obj:0)
h-1,462                             0.833137264251709 	(obj:0)
h-1,467                                          0.01 	(obj:0)
h-1,469                                          0.01 	(obj:0)
h-1,470                                          0.01 	(obj:0)
h-1,472                                          0.01 	(obj:0)
h-1,473                                          0.01 	(obj:0)
h-1,474                                          0.01 	(obj:0)
h-1,475                                          0.01 	(obj:0)
h-1,476                                          0.01 	(obj:0)
h-1,480                                          0.01 	(obj:0)
h-1,481                                          0.01 	(obj:0)
h-1,482                                          0.01 	(obj:0)
h-1,484                                          0.01 	(obj:0)
h-1,485                                          0.01 	(obj:0)
h-1,486                                          0.01 	(obj:0)
h-1,487                                          0.01 	(obj:0)
h-1,488                             0.460588237047195 	(obj:0)
h-1,489                             0.986078431606293 	(obj:0)
h-1,490                             0.633529434204102 	(obj:0)
h-1,493                                          0.01 	(obj:0)
h-1,494                                          0.01 	(obj:0)
h-1,496                                          0.01 	(obj:0)
h-1,499                                          0.01 	(obj:0)
h-1,500                                          0.01 	(obj:0)
h-1,501                                          0.01 	(obj:0)
h-1,502                                          0.01 	(obj:0)
h-1,503                                          0.01 	(obj:0)
h-1,508                                          0.01 	(obj:0)
h-1,509                                          0.01 	(obj:0)
h-1,511                                          0.01 	(obj:0)
h-1,512                                          0.01 	(obj:0)
h-1,513                                          0.01 	(obj:0)
h-1,514                                          0.01 	(obj:0)
h-1,515                                          0.01 	(obj:0)
h-1,516                             0.602156887054443 	(obj:0)
h-1,517                             0.986078431606293 	(obj:0)
h-1,518                             0.546862771511078 	(obj:0)
h-1,519                                          0.01 	(obj:0)
h-1,520                                          0.01 	(obj:0)
h-1,521                                          0.01 	(obj:0)
h-1,522                                          0.01 	(obj:0)
h-1,523                                          0.01 	(obj:0)
h-1,525                                          0.01 	(obj:0)
h-1,526                                          0.01 	(obj:0)
h-1,527                                          0.01 	(obj:0)
h-1,528                                          0.01 	(obj:0)
h-1,529                                          0.01 	(obj:0)
h-1,530                                          0.01 	(obj:0)
h-1,531                                          0.01 	(obj:0)
h-1,533                                          0.01 	(obj:0)
h-1,536                                          0.01 	(obj:0)
h-1,538                                          0.01 	(obj:0)
h-1,540                                          0.01 	(obj:0)
h-1,541                                          0.01 	(obj:0)
h-1,542                                          0.01 	(obj:0)
h-1,543                                          0.01 	(obj:0)
h-1,544                             0.904117653369904 	(obj:0)
h-1,545                                             1 	(obj:0)
h-1,546                             0.268823543787003 	(obj:0)
h-1,547                                          0.01 	(obj:0)
h-1,548                                          0.01 	(obj:0)
h-1,551                                          0.01 	(obj:0)
h-1,552                                          0.01 	(obj:0)
h-1,554                                          0.01 	(obj:0)
h-1,555                                          0.01 	(obj:0)
h-1,556                                          0.01 	(obj:0)
h-1,557                                          0.01 	(obj:0)
h-1,558                                          0.01 	(obj:0)
h-1,561                                          0.01 	(obj:0)
h-1,563                                          0.01 	(obj:0)
h-1,564                                          0.01 	(obj:0)
h-1,565                                          0.01 	(obj:0)
h-1,566                                          0.01 	(obj:0)
h-1,567                                          0.01 	(obj:0)
h-1,568                                          0.01 	(obj:0)
h-1,569                                          0.01 	(obj:0)
h-1,571                             0.249215686917305 	(obj:0)
h-1,572                             0.994313726425171 	(obj:0)
h-1,573                                             1 	(obj:0)
h-1,574                             0.248823543787003 	(obj:0)
h-1,575                                          0.01 	(obj:0)
h-1,576                                          0.01 	(obj:0)
h-1,577                                          0.01 	(obj:0)
h-1,578                                          0.01 	(obj:0)
h-1,580                                          0.01 	(obj:0)
h-1,581                                          0.01 	(obj:0)
h-1,583                                          0.01 	(obj:0)
h-1,584                                          0.01 	(obj:0)
h-1,586                                          0.01 	(obj:0)
h-1,591                                          0.01 	(obj:0)
h-1,593                                          0.01 	(obj:0)
h-1,595                                          0.01 	(obj:0)
h-1,597                                          0.01 	(obj:0)
h-1,598                                          0.01 	(obj:0)
h-1,599                             0.562941203117371 	(obj:0)
h-1,600                                             1 	(obj:0)
h-1,601                             0.813921580314636 	(obj:0)
h-1,602                            0.0217647061124444 	(obj:0)
h-1,603                                          0.01 	(obj:0)
h-1,605                                          0.01 	(obj:0)
h-1,606                                          0.01 	(obj:0)
h-1,607                                          0.01 	(obj:0)
h-1,608                                          0.01 	(obj:0)
h-1,609                                          0.01 	(obj:0)
h-1,611                                          0.01 	(obj:0)
h-1,612                                          0.01 	(obj:0)
h-1,613                                          0.01 	(obj:0)
h-1,614                                          0.01 	(obj:0)
h-1,618                                          0.01 	(obj:0)
h-1,619                                          0.01 	(obj:0)
h-1,621                                          0.01 	(obj:0)
h-1,622                                          0.01 	(obj:0)
h-1,624                                          0.01 	(obj:0)
h-1,625                                          0.01 	(obj:0)
h-1,626                            0.0292156876623631 	(obj:0)
h-1,627                             0.853137264251709 	(obj:0)
h-1,628                                             1 	(obj:0)
h-1,629                             0.484509805440903 	(obj:0)
h-1,630                                          0.01 	(obj:0)
h-1,632                                          0.01 	(obj:0)
h-1,634                                          0.01 	(obj:0)
h-1,635                                          0.01 	(obj:0)
h-1,636                                          0.01 	(obj:0)
h-1,637                                          0.01 	(obj:0)
h-1,638                                          0.01 	(obj:0)
h-1,639                                          0.01 	(obj:0)
h-1,640                                          0.01 	(obj:0)
h-1,641                                          0.01 	(obj:0)
h-1,643                                          0.01 	(obj:0)
h-1,644                                          0.01 	(obj:0)
h-1,646                                          0.01 	(obj:0)
h-1,649                                          0.01 	(obj:0)
h-1,650                                          0.01 	(obj:0)
h-1,651                                          0.01 	(obj:0)
h-1,652                                          0.01 	(obj:0)
h-1,654                            0.0296078438311815 	(obj:0)
h-1,655                             0.786470601558685 	(obj:0)
h-1,656                             0.700196096897125 	(obj:0)
h-1,657                            0.0292156876623631 	(obj:0)
h-1,660                                          0.01 	(obj:0)
h-1,663                                          0.01 	(obj:0)
h-1,664                                          0.01 	(obj:0)
h-1,665                                          0.01 	(obj:0)
h-1,666                                          0.01 	(obj:0)
h-1,668                                          0.01 	(obj:0)
h-1,669                                          0.01 	(obj:0)
h-1,672                                          0.01 	(obj:0)
h-1,673                                          0.01 	(obj:0)
h-1,680                                          0.01 	(obj:0)
h-1,681                                          0.01 	(obj:0)
h-1,684                                          0.01 	(obj:0)
h-1,685                                          0.01 	(obj:0)
h-1,694                                          0.01 	(obj:0)
h-1,696                                          0.01 	(obj:0)
h-1,697                                          0.01 	(obj:0)
h-1,698                                          0.01 	(obj:0)
h-1,699                                          0.01 	(obj:0)
h-1,701                                          0.01 	(obj:0)
h-1,726                                          0.01 	(obj:0)
h-1,727                                          0.01 	(obj:0)
h-1,747                                          0.01 	(obj:0)
h-1,752                                          0.01 	(obj:0)
h-1,753                                          0.01 	(obj:0)
h-1,754                                          0.01 	(obj:0)
h-1,757                                          0.01 	(obj:0)
h-1,759                                          0.01 	(obj:0)
h-1,763                                          0.01 	(obj:0)
h-1,764                                          0.01 	(obj:0)
h-1,765                                          0.01 	(obj:0)
h-1,768                                          0.01 	(obj:0)
h-1,769                                          0.01 	(obj:0)
h-1,770                                          0.01 	(obj:0)
h-1,773                                          0.01 	(obj:0)
h-1,774                                          0.01 	(obj:0)
h-1,775                                          0.01 	(obj:0)
h-1,776                                          0.01 	(obj:0)
h-1,780                                          0.01 	(obj:0)
h-1,781                                          0.01 	(obj:0)
h-1,782                                          0.01 	(obj:0)
h-1,783                                          0.01 	(obj:0)
z0,0                                -7.80053640664163 	(obj:0)
a0,0                             0.000408948748839628 	(obj:0)
z0,1                                 11.6846591333096 	(obj:0)
a0,1                                0.999999996723365 	(obj:0)
z0,2                                -12.9757065680412 	(obj:0)
a0,2                             1.03666671607691e-05 	(obj:0)
z0,3                                -4.27496164746212 	(obj:0)
a0,3                                0.013721744269746 	(obj:0)
z0,4                               0.0441764463840446 	(obj:0)
a0,4                                0.511046551254234 	(obj:0)
z1,0                                -25.3263974042747 	(obj:0)
z1,1                                 4.15254011638864 	(obj:0)
a1,1                                0.984515106794884 	(obj:-1)
z1,2                                 2.40750534962315 	(obj:0)
a1,2                                0.917402468514098 	(obj:1)
z1,3                                -13.8985912316569 	(obj:0)
z1,4                                -18.7817532430029 	(obj:0)
a1,4                             6.79313073269156e-09 	(obj:0)
z1,5                                -21.5506323586286 	(obj:0)
z1,6                                -7.55752851004029 	(obj:0)
a1,6                              0.00052175349977909 	(obj:0)
z1,7                                 -13.250345337544 	(obj:0)
a1,7                             8.36834031849995e-07 	(obj:0)
z1,8                                -16.2629793331384 	(obj:0)
a1,8                             8.63822266960345e-08 	(obj:0)
z1,9                                -36.1340710677409 	(obj:0)
